data/solutions/recovery/degenerate/moderate/flexible/degenerate_moderate_instance20/12.sol
Elapsed time: 3.04
Upper bound: 154370031.0
Planning weighted value: 2209361639.0
C[0]=154370031.0
C[1]=154316784.0
C[2]=154186812.0
C[3]=154076239.0
y[0]=0
y[1]=0
y[2]=3
y[3]=0
y[4]=0
y[5]=2
y[6]=0
y[7]=2
y[8]=2
y[9]=2
y[10]=0
y[11]=1
y[12]=3
y[13]=3
y[14]=1
y[15]=0
y[16]=3
y[17]=0
y[18]=2
y[19]=2
y[20]=2
y[21]=1
y[22]=0
y[23]=3
y[24]=2
y[25]=1
y[26]=3
y[27]=1
y[28]=3
y[29]=0
y[30]=1
y[31]=2
y[32]=3
y[33]=2
y[34]=1
y[35]=3
